0 79 89
1 78 91
2 83 93
3 90 92
4 85 92
5 82 93
6 89 92
7 70 92
8 87 92
9 88 91
10 86 90
11 77 91
12 76 88
13 65 88
14 83 87
15 72 83
16 79 81
17 79 80
18 85 87
19 75 85
20 84 85
21 80 84
22 78 82
23 75 83
24 58 82
25 74 80
26 73 78
27 66 77
28 73 75
29 66 72
30 73 74
31 29 74
32 44 71
33 62 68
34 54 63
35 58 62
36 57 60
37 56 59
38 57 56
39 50 49
40 47 49
41 50 50
42 44 51
43 49 50
44 45 49
45 45 48
46 20 50
47 45 52
48 35 50
49 35 47
50 40 47
51 38 44
52 38 44
53 32 42
54 37 41
55 24 40
56 32 36
57 26 33
58 31 33
59 19 31
60 18 29
61 22 26
62 19 23
63 20 21
64 20 19
65 18 18
66 18 18
67 19 19
68 19 18
69 14 13
70 12 13
71 15 14
72 8 16
73 15 14
74 14 17
75 18 18
76 16 16
77 8 14
78 9 13
79 12 12
80 14 13
81 15 14
82 2 13
83 11 10
84 6 11
85 1 12
86 9 11
87 8 9
88 1 8
89 3 5
90 2 2
91 2 1
92 1 0
93 3 2
94 1 0
95 1 0
96 1 0
97 1 0
98 1 0
99 2 1
100 1 0
101 2 2
102 1 1
103 2 1
104 1 0
105 1 0
106 1 0
107 2 1
108 1 1
109 1 0
110 1 0
111 1 0
112 1 0
113 1 0
114 1 0
115 2 1
116 1 0
117 1 1

